benchmark/instancefiles/cbf/tls4.cbf
# Generated by ConicBenchmarkUtilities.jl
VER
2

OBJSENSE
MIN

VAR
122 1
F 122

INT
89
0
1
2
3
4
5
6
7
8
9
10
11
12
13
14
15
16
17
18
19
20
21
22
23
24
26
27
28
29
30
31
32
33
34
35
36
37
38
39
40
41
42
43
44
45
46
47
48
49
50
51
52
53
54
55
56
57
58
59
60
61
62
63
64
65
66
67
68
69
70
71
72
73
74
75
76
77
78
79
80
81
82
83
84
85
86
87
88
89

CON
339 307
L= 1
L+ 1
L+ 1
L+ 1
L+ 1
L+ 1
L+ 1
L+ 1
L+ 1
L+ 1
L+ 1
L+ 1
L+ 1
L+ 1
L+ 1
L+ 1
L+ 1
L+ 1
L+ 1
L+ 1
L+ 1
L= 1
L= 1
L= 1
L= 1
L+ 1
L+ 1
L+ 1
L+ 1
L= 1
L= 1
L= 1
L= 1
L= 1
L= 1
L= 1
L= 1
L= 1
L= 1
L= 1
L= 1
L= 1
L= 1
L= 1
L= 1
L+ 1
L+ 1
L+ 1
L+ 1
L+ 1
L+ 1
L+ 1
L+ 1
L+ 1
L+ 1
L+ 1
L+ 1
L+ 1
L+ 1
L+ 1
L+ 1
Q 3
L+ 1
L+ 1
Q 3
L+ 1
L+ 1
Q 3
L+ 1
L+ 1
Q 3
L+ 1
L+ 1
L+ 1
Q 3
L+ 1
L+ 1
Q 3
L+ 1
L+ 1
Q 3
L+ 1
L+ 1
Q 3
L+ 1
L+ 1
L+ 1
Q 3
L+ 1
L+ 1
Q 3
L+ 1
L+ 1
Q 3
L+ 1
L+ 1
Q 3
L+ 1
L+ 1
L+ 1
Q 3
L+ 1
L+ 1
Q 3
L+ 1
L+ 1
Q 3
L+ 1
L+ 1
Q 3
L+ 1
L+ 1
L+ 1
L+ 1
L+ 1
L+ 1
L+ 1
L+ 1
L+ 1
L+ 1
L+ 1
L+ 1
L+ 1
L+ 1
L+ 1
L+ 1
L+ 1
L+ 1
L+ 1
L+ 1
L+ 1
L+ 1
L+ 1
L+ 1
L+ 1
L+ 1
L+ 1
L+ 1
L+ 1
L+ 1
L+ 1
L+ 1
L+ 1
L+ 1
L+ 1
L+ 1
L+ 1
L+ 1
L+ 1
L+ 1
L+ 1
L+ 1
L+ 1
L+ 1
L+ 1
L+ 1
L+ 1
L+ 1
L+ 1
L+ 1
L+ 1
L+ 1
L+ 1
L+ 1
L+ 1
L+ 1
L+ 1
L+ 1
L+ 1
L+ 1
L+ 1
L+ 1
L+ 1
L+ 1
L+ 1
L+ 1
L+ 1
L+ 1
L+ 1
L+ 1
L+ 1
L+ 1
L+ 1
L+ 1
L+ 1
L+ 1
L+ 1
L+ 1
L+ 1
L+ 1
L+ 1
L+ 1
L+ 1
L+ 1
L+ 1
L+ 1
L+ 1
L+ 1
L+ 1
L+ 1
L+ 1
L+ 1
L+ 1
L+ 1
L+ 1
L+ 1
L+ 1
L+ 1
L+ 1
L+ 1
L+ 1
L+ 1
L+ 1
L+ 1
L+ 1
L+ 1
L+ 1
L+ 1
L+ 1
L+ 1
L+ 1
L+ 1
L+ 1
L+ 1
L+ 1
L+ 1
L+ 1
L+ 1
L+ 1
L+ 1
L+ 1
L+ 1
L+ 1
L+ 1
L+ 1
L+ 1
L+ 1
L+ 1
L+ 1
L+ 1
L+ 1
L+ 1
L+ 1
L+ 1
L+ 1
L+ 1
L+ 1
L+ 1
L+ 1
L+ 1
L+ 1
L+ 1
L+ 1
L+ 1
L+ 1
L+ 1
L+ 1
L+ 1
L+ 1
L+ 1
L+ 1
L+ 1
L+ 1
L+ 1
L+ 1
L+ 1
L+ 1
L+ 1
L+ 1
L+ 1
L+ 1
L+ 1
L+ 1
L+ 1
L+ 1
L+ 1
L+ 1
L+ 1
L+ 1
L+ 1
L+ 1
L+ 1
L+ 1
L+ 1
L+ 1
L+ 1
L+ 1
L+ 1
L+ 1
L+ 1
L+ 1
L+ 1
L+ 1
L+ 1
L+ 1
L+ 1
L+ 1
L+ 1
L+ 1
L+ 1
L+ 1
L+ 1
L+ 1
L+ 1
L+ 1
L+ 1
L+ 1

OBJACOORD
1
25 1.0

ACOORD
904
0 0 0.1
13 0 -1.0
17 0 8.0
145 0 1.0
146 0 -1.0
0 1 0.2
14 1 -1.0
18 1 7.0
147 1 1.0
148 1 -1.0
0 2 0.3
15 2 -1.0
19 2 4.0
149 2 1.0
150 2 -1.0
0 3 0.4
16 3 -1.0
20 3 2.0
151 3 1.0
152 3 -1.0
0 4 1.0
13 4 1.0
17 4 -1.0
21 4 -3.0
25 4 -1.0
81 4 -1.0
102 4 -1.0
123 4 -1.0
144 4 -1.0
177 4 1.0
178 4 -1.0
0 5 2.0
13 5 2.0
17 5 -2.0
21 5 -8.0
25 5 -1.0
81 5 -2.0
102 5 -2.0
123 5 -2.0
144 5 -2.0
179 5 1.0
180 5 -1.0
0 6 3.0
13 6 3.0
17 6 -3.0
21 6 -15.0
25 6 -1.0
81 6 -3.0
102 6 -3.0
123 6 -3.0
144 6 -3.0
181 6 1.0
182 6 -1.0
0 7 4.0
13 7 4.0
17 7 -4.0
21 7 -24.0
25 7 -1.0
81 7 -4.0
102 7 -4.0
123 7 -4.0
144 7 -4.0
183 7 1.0
184 7 -1.0
0 8 5.0
13 8 5.0
17 8 -5.0
21 8 -35.0
25 8 -1.0
81 8 -5.0
102 8 -5.0
123 8 -5.0
144 8 -5.0
185 8 1.0
186 8 -1.0
0 9 6.0
13 9 6.0
17 9 -6.0
21 9 -48.0
25 9 -1.0
81 9 -6.0
102 9 -6.0
123 9 -6.0
144 9 -6.0
187 9 1.0
188 9 -1.0
0 10 7.0
13 10 7.0
17 10 -7.0
21 10 -63.0
25 10 -1.0
81 10 -7.0
102 10 -7.0
123 10 -7.0
144 10 -7.0
189 10 1.0
190 10 -1.0
0 11 8.0
13 11 8.0
17 11 -8.0
21 11 -80.0
25 11 -1.0
81 11 -8.0
102 11 -8.0
123 11 -8.0
144 11 -8.0
191 11 1.0
192 11 -1.0
0 12 1.0
14 12 1.0
18 12 -1.0
22 12 -3.0
26 12 -1.0
81 12 -1.0
102 12 -1.0
123 12 -1.0
144 12 -1.0
193 12 1.0
194 12 -1.0
0 13 2.0
14 13 2.0
18 13 -2.0
22 13 -8.0
26 13 -1.0
81 13 -2.0
102 13 -2.0
123 13 -2.0
144 13 -2.0
195 13 1.0
196 13 -1.0
0 14 3.0
14 14 3.0
18 14 -3.0
22 14 -15.0
26 14 -1.0
81 14 -3.0
102 14 -3.0
123 14 -3.0
144 14 -3.0
197 14 1.0
198 14 -1.0
0 15 4.0
14 15 4.0
18 15 -4.0
22 15 -24.0
26 15 -1.0
81 15 -4.0
102 15 -4.0
123 15 -4.0
144 15 -4.0
199 15 1.0
200 15 -1.0
0 16 5.0
14 16 5.0
18 16 -5.0
22 16 -35.0
26 16 -1.0
81 16 -5.0
102 16 -5.0
123 16 -5.0
144 16 -5.0
201 16 1.0
202 16 -1.0
0 17 6.0
14 17 6.0
18 17 -6.0
22 17 -48.0
26 17 -1.0
81 17 -6.0
102 17 -6.0
123 17 -6.0
144 17 -6.0
203 17 1.0
204 17 -1.0
0 18 7.0
14 18 7.0
18 18 -7.0
22 18 -63.0
26 18 -1.0
81 18 -7.0
102 18 -7.0
123 18 -7.0
144 18 -7.0
205 18 1.0
206 18 -1.0
0 19 1.0
15 19 1.0
19 19 -1.0
23 19 -3.0
27 19 -1.0
81 19 -1.0
102 19 -1.0
123 19 -1.0
144 19 -1.0
207 19 1.0
208 19 -1.0
0 20 2.0
15 20 2.0
19 20 -2.0
23 20 -8.0
27 20 -1.0
81 20 -2.0
102 20 -2.0
123 20 -2.0
144 20 -2.0
209 20 1.0
210 20 -1.0
0 21 3.0
15 21 3.0
19 21 -3.0
23 21 -15.0
27 21 -1.0
81 21 -3.0
102 21 -3.0
123 21 -3.0
144 21 -3.0
211 21 1.0
212 21 -1.0
0 22 4.0
15 22 4.0
19 22 -4.0
23 22 -24.0
27 22 -1.0
81 22 -4.0
102 22 -4.0
123 22 -4.0
144 22 -4.0
213 22 1.0
214 22 -1.0
0 23 1.0
16 23 1.0
20 23 -1.0
24 23 -3.0
28 23 -1.0
81 23 -1.0
102 23 -1.0
123 23 -1.0
144 23 -1.0
215 23 1.0
216 23 -1.0
0 24 2.0
16 24 2.0
20 24 -2.0
24 24 -8.0
28 24 -1.0
81 24 -2.0
102 24 -2.0
123 24 -2.0
144 24 -2.0
217 24 1.0
218 24 -1.0
0 25 -1.0
1 26 -330.0
5 26 330.0
9 26 -1.0
29 26 -3.0
45 26 -1.0
81 26 -1.0
219 26 1.0
220 26 -1.0
1 27 -660.0
5 27 660.0
9 27 -2.0
29 27 -8.0
45 27 -1.0
81 27 -2.0
221 27 1.0
222 27 -1.0
1 28 -990.0
5 28 990.0
9 28 -3.0
29 28 -15.0
45 28 -1.0
81 28 -3.0
223 28 1.0
224 28 -1.0
1 29 -1320.0
5 29 1320.0
9 29 -4.0
29 29 -24.0
45 29 -1.0
81 29 -4.0
225 29 1.0
226 29 -1.0
1 30 -360.0
5 30 360.0
9 30 -1.0
33 30 -3.0
49 30 -1.0
102 30 -1.0
251 30 1.0
252 30 -1.0
1 31 -720.0
5 31 720.0
9 31 -2.0
33 31 -8.0
49 31 -1.0
102 31 -2.0
253 31 1.0
254 31 -1.0
1 32 -1080.0
5 32 1080.0
9 32 -3.0
33 32 -15.0
49 32 -1.0
102 32 -3.0
255 32 1.0
256 32 -1.0
1 33 -1440.0
5 33 1440.0
9 33 -4.0
33 33 -24.0
49 33 -1.0
102 33 -4.0
257 33 1.0
258 33 -1.0
1 34 -1800.0
5 34 1800.0
9 34 -5.0
33 34 -35.0
49 34 -1.0
102 34 -5.0
259 34 1.0
260 34 -1.0
1 35 -385.0
5 35 385.0
9 35 -1.0
37 35 -3.0
53 35 -1.0
123 35 -1.0
291 35 1.0
292 35 -1.0
1 36 -770.0
5 36 770.0
9 36 -2.0
37 36 -8.0
53 36 -1.0
123 36 -2.0
293 36 1.0
294 36 -1.0
1 37 -1155.0
5 37 1155.0
9 37 -3.0
37 37 -15.0
53 37 -1.0
123 37 -3.0
295 37 1.0
296 37 -1.0
1 38 -1540.0
5 38 1540.0
9 38 -4.0
37 38 -24.0
53 38 -1.0
123 38 -4.0
297 38 1.0
298 38 -1.0
1 39 -415.0
5 39 415.0
9 39 -1.0
41 39 -3.0
57 39 -1.0
144 39 -1.0
323 39 1.0
324 39 -1.0
1 40 -830.0
5 40 830.0
9 40 -2.0
41 40 -8.0
57 40 -1.0
144 40 -2.0
325 40 1.0
326 40 -1.0
2 41 -330.0
6 41 330.0
10 41 -1.0
30 41 -3.0
46 41 -1.0
81 41 -1.0
227 41 1.0
228 41 -1.0
2 42 -660.0
6 42 660.0
10 42 -2.0
30 42 -8.0
46 42 -1.0
81 42 -2.0
229 42 1.0
230 42 -1.0
2 43 -990.0
6 43 990.0
10 43 -3.0
30 43 -15.0
46 43 -1.0
81 43 -3.0
231 43 1.0
232 43 -1.0
2 44 -1320.0
6 44 1320.0
10 44 -4.0
30 44 -24.0
46 44 -1.0
81 44 -4.0
233 44 1.0
234 44 -1.0
2 45 -360.0
6 45 360.0
10 45 -1.0
34 45 -3.0
50 45 -1.0
102 45 -1.0
261 45 1.0
262 45 -1.0
2 46 -720.0
6 46 720.0
10 46 -2.0
34 46 -8.0
50 46 -1.0
102 46 -2.0
263 46 1.0
264 46 -1.0
2 47 -1080.0
6 47 1080.0
10 47 -3.0
34 47 -15.0
50 47 -1.0
102 47 -3.0
265 47 1.0
266 47 -1.0
2 48 -1440.0
6 48 1440.0
10 48 -4.0
34 48 -24.0
50 48 -1.0
102 48 -4.0
267 48 1.0
268 48 -1.0
2 49 -1800.0
6 49 1800.0
10 49 -5.0
34 49 -35.0
50 49 -1.0
102 49 -5.0
269 49 1.0
270 49 -1.0
2 50 -385.0
6 50 385.0
10 50 -1.0
38 50 -3.0
54 50 -1.0
123 50 -1.0
299 50 1.0
300 50 -1.0
2 51 -770.0
6 51 770.0
10 51 -2.0
38 51 -8.0
54 51 -1.0
123 51 -2.0
301 51 1.0
302 51 -1.0
2 52 -1155.0
6 52 1155.0
10 52 -3.0
38 52 -15.0
54 52 -1.0
123 52 -3.0
303 52 1.0
304 52 -1.0
2 53 -1540.0
6 53 1540.0
10 53 -4.0
38 53 -24.0
54 53 -1.0
123 53 -4.0
305 53 1.0
306 53 -1.0
2 54 -415.0
6 54 415.0
10 54 -1.0
42 54 -3.0
58 54 -1.0
144 54 -1.0
327 54 1.0
328 54 -1.0
2 55 -830.0
6 55 830.0
10 55 -2.0
42 55 -8.0
58 55 -1.0
144 55 -2.0
329 55 1.0
330 55 -1.0
3 56 -330.0
7 56 330.0
11 56 -1.0
31 56 -3.0
47 56 -1.0
81 56 -1.0
235 56 1.0
236 56 -1.0
3 57 -660.0
7 57 660.0
11 57 -2.0
31 57 -8.0
47 57 -1.0
81 57 -2.0
237 57 1.0
238 57 -1.0
3 58 -990.0
7 58 990.0
11 58 -3.0
31 58 -15.0
47 58 -1.0
81 58 -3.0
239 58 1.0
240 58 -1.0
3 59 -1320.0
7 59 1320.0
11 59 -4.0
31 59 -24.0
47 59 -1.0
81 59 -4.0
241 59 1.0
242 59 -1.0
3 60 -360.0
7 60 360.0
11 60 -1.0
35 60 -3.0
51 60 -1.0
102 60 -1.0
271 60 1.0
272 60 -1.0
3 61 -720.0
7 61 720.0
11 61 -2.0
35 61 -8.0
51 61 -1.0
102 61 -2.0
273 61 1.0
274 61 -1.0
3 62 -1080.0
7 62 1080.0
11 62 -3.0
35 62 -15.0
51 62 -1.0
102 62 -3.0
275 62 1.0
276 62 -1.0
3 63 -1440.0
7 63 1440.0
11 63 -4.0
35 63 -24.0
51 63 -1.0
102 63 -4.0
277 63 1.0
278 63 -1.0
3 64 -1800.0
7 64 1800.0
11 64 -5.0
35 64 -35.0
51 64 -1.0
102 64 -5.0
279 64 1.0
280 64 -1.0
3 65 -385.0
7 65 385.0
11 65 -1.0
39 65 -3.0
55 65 -1.0
123 65 -1.0
307 65 1.0
308 65 -1.0
3 66 -770.0
7 66 770.0
11 66 -2.0
39 66 -8.0
55 66 -1.0
123 66 -2.0
309 66 1.0
310 66 -1.0
3 67 -1155.0
7 67 1155.0
11 67 -3.0
39 67 -15.0
55 67 -1.0
123 67 -3.0
311 67 1.0
312 67 -1.0
3 68 -1540.0
7 68 1540.0
11 68 -4.0
39 68 -24.0
55 68 -1.0
123 68 -4.0
313 68 1.0
314 68 -1.0
3 69 -415.0
7 69 415.0
11 69 -1.0
43 69 -3.0
59 69 -1.0
144 69 -1.0
331 69 1.0
332 69 -1.0
3 70 -830.0
7 70 830.0
11 70 -2.0
43 70 -8.0
59 70 -1.0
144 70 -2.0
333 70 1.0
334 70 -1.0
4 71 -330.0
8 71 330.0
12 71 -1.0
32 71 -3.0
48 71 -1.0
81 71 -1.0
243 71 1.0
244 71 -1.0
4 72 -660.0
8 72 660.0
12 72 -2.0
32 72 -8.0
48 72 -1.0
81 72 -2.0
245 72 1.0
246 72 -1.0
4 73 -990.0
8 73 990.0
12 73 -3.0
32 73 -15.0
48 73 -1.0
81 73 -3.0
247 73 1.0
248 73 -1.0
4 74 -1320.0
8 74 1320.0
12 74 -4.0
32 74 -24.0
48 74 -1.0
81 74 -4.0
249 74 1.0
250 74 -1.0
4 75 -360.0
8 75 360.0
12 75 -1.0
36 75 -3.0
52 75 -1.0
102 75 -1.0
281 75 1.0
282 75 -1.0
4 76 -720.0
8 76 720.0
12 76 -2.0
36 76 -8.0
52 76 -1.0
102 76 -2.0
283 76 1.0
284 76 -1.0
4 77 -1080.0
8 77 1080.0
12 77 -3.0
36 77 -15.0
52 77 -1.0
102 77 -3.0
285 77 1.0
286 77 -1.0
4 78 -1440.0
8 78 1440.0
12 78 -4.0
36 78 -24.0
52 78 -1.0
102 78 -4.0
287 78 1.0
288 78 -1.0
4 79 -1800.0
8 79 1800.0
12 79 -5.0
36 79 -35.0
52 79 -1.0
102 79 -5.0
289 79 1.0
290 79 -1.0
4 80 -385.0
8 80 385.0
12 80 -1.0
40 80 -3.0
56 80 -1.0
123 80 -1.0
315 80 1.0
316 80 -1.0
4 81 -770.0
8 81 770.0
12 81 -2.0
40 81 -8.0
56 81 -1.0
123 81 -2.0
317 81 1.0
318 81 -1.0
4 82 -1155.0
8 82 1155.0
12 82 -3.0
40 82 -15.0
56 82 -1.0
123 82 -3.0
319 82 1.0
320 82 -1.0
4 83 -1540.0
8 83 1540.0
12 83 -4.0
40 83 -24.0
56 83 -1.0
123 83 -4.0
321 83 1.0
322 83 -1.0
4 84 -415.0
8 84 415.0
12 84 -1.0
44 84 -3.0
60 84 -1.0
144 84 -1.0
335 84 1.0
336 84 -1.0
4 85 -830.0
8 85 830.0
12 85 -2.0
44 85 -8.0
60 85 -1.0
144 85 -2.0
337 85 1.0
338 85 -1.0
21 86 1.0
61 86 1.0
62 86 -1.0
64 86 1.0
82 86 1.0
83 86 -1.0
85 86 1.0
103 86 1.0
104 86 -1.0
106 86 1.0
124 86 1.0
125 86 -1.0
127 86 1.0
153 86 1.0
154 86 -1.0
22 87 1.0
66 87 1.0
67 87 -1.0
69 87 1.0
87 87 1.0
88 87 -1.0
90 87 1.0
108 87 1.0
109 87 -1.0
111 87 1.0
129 87 1.0
130 87 -1.0
132 87 1.0
155 87 1.0
156 87 -1.0
23 88 1.0
71 88 1.0
72 88 -1.0
74 88 1.0
92 88 1.0
93 88 -1.0
95 88 1.0
113 88 1.0
114 88 -1.0
116 88 1.0
134 88 1.0
135 88 -1.0
137 88 1.0
157 88 1.0
158 88 -1.0
24 89 1.0
76 89 1.0
77 89 -1.0
79 89 1.0
97 89 1.0
98 89 -1.0
100 89 1.0
118 89 1.0
119 89 -1.0
121 89 1.0
139 89 1.0
140 89 -1.0
142 89 1.0
159 89 1.0
160 89 -1.0
29 90 1.0
61 90 1.0
62 90 1.0
65 90 1.0
161 90 1.0
30 91 1.0
66 91 1.0
67 91 1.0
70 91 1.0
162 91 1.0
31 92 1.0
71 92 1.0
72 92 1.0
75 92 1.0
163 92 1.0
32 93 1.0
76 93 1.0
77 93 1.0
80 93 1.0
164 93 1.0
33 94 1.0
82 94 1.0
83 94 1.0
86 94 1.0
165 94 1.0
34 95 1.0
87 95 1.0
88 95 1.0
91 95 1.0
166 95 1.0
35 96 1.0
92 96 1.0
93 96 1.0
96 96 1.0
167 96 1.0
36 97 1.0
97 97 1.0
98 97 1.0
101 97 1.0
168 97 1.0
37 98 1.0
103 98 1.0
104 98 1.0
107 98 1.0
169 98 1.0
38 99 1.0
108 99 1.0
109 99 1.0
112 99 1.0
170 99 1.0
39 100 1.0
113 100 1.0
114 100 1.0
117 100 1.0
171 100 1.0
40 101 1.0
118 101 1.0
119 101 1.0
122 101 1.0
172 101 1.0
41 102 1.0
124 102 1.0
125 102 1.0
128 102 1.0
173 102 1.0
42 103 1.0
129 103 1.0
130 103 1.0
133 103 1.0
174 103 1.0
43 104 1.0
134 104 1.0
135 104 1.0
138 104 1.0
175 104 1.0
44 105 1.0
139 105 1.0
140 105 1.0
143 105 1.0
176 105 1.0
63 106 2.0
81 106 1.0
68 107 2.0
81 107 1.0
73 108 2.0
81 108 1.0
78 109 2.0
81 109 1.0
84 110 2.0
102 110 1.0
89 111 2.0
102 111 1.0
94 112 2.0
102 112 1.0
99 113 2.0
102 113 1.0
105 114 2.0
123 114 1.0
110 115 2.0
123 115 1.0
115 116 2.0
123 116 1.0
120 117 2.0
123 117 1.0
126 118 2.0
144 118 1.0
131 119 2.0
144 119 1.0
136 120 2.0
144 120 1.0
141 121 2.0
144 121 1.0

BCOORD
165
1 1900.0
2 1900.0
3 1900.0
4 1900.0
5 -1700.0
6 -1700.0
7 -1700.0
8 -1700.0
9 5.0
10 5.0
11 5.0
12 5.0
21 -1.0
22 -1.0
23 -1.0
24 -1.0
25 1.0
26 1.0
27 1.0
28 1.0
29 -1.0
30 -1.0
31 -1.0
32 -1.0
33 -1.0
34 -1.0
35 -1.0
36 -1.0
37 -1.0
38 -1.0
39 -1.0
40 -1.0
41 -1.0
42 -1.0
43 -1.0
44 -1.0
45 1.0
46 1.0
47 1.0
48 1.0
49 1.0
50 1.0
51 1.0
52 1.0
53 1.0
54 1.0
55 1.0
56 1.0
57 1.0
58 1.0
59 1.0
60 1.0
81 -12.0
102 -11.0
123 -16.0
144 -15.0
146 1.0
148 1.0
150 1.0
152 1.0
153 -1.0
154 100.0
155 -1.0
156 100.0
157 -1.0
158 100.0
159 -1.0
160 100.0
161 -1.0
162 -1.0
163 -1.0
164 -1.0
165 -1.0
166 -1.0
167 -1.0
168 -1.0
169 -1.0
170 -1.0
171 -1.0
172 -1.0
173 -1.0
174 -1.0
175 -1.0
176 -1.0
178 1.0
180 1.0
182 1.0
184 1.0
186 1.0
188 1.0
190 1.0
192 1.0
194 1.0
196 1.0
198 1.0
200 1.0
202 1.0
204 1.0
206 1.0
208 1.0
210 1.0
212 1.0
214 1.0
216 1.0
218 1.0
220 1.0
222 1.0
224 1.0
226 1.0
228 1.0
230 1.0
232 1.0
234 1.0
236 1.0
238 1.0
240 1.0
242 1.0
244 1.0
246 1.0
248 1.0
250 1.0
252 1.0
254 1.0
256 1.0
258 1.0
260 1.0
262 1.0
264 1.0
266 1.0
268 1.0
270 1.0
272 1.0
274 1.0
276 1.0
278 1.0
280 1.0
282 1.0
284 1.0
286 1.0
288 1.0
290 1.0
292 1.0
294 1.0
296 1.0
298 1.0
300 1.0
302 1.0
304 1.0
306 1.0
308 1.0
310 1.0
312 1.0
314 1.0
316 1.0
318 1.0
320 1.0
322 1.0
324 1.0
326 1.0
328 1.0
330 1.0
332 1.0
334 1.0
336 1.0
338 1.0
