benchmark/outputs/tls4.cbf.txt
instance tls4.cbf
ran at: 2019-01-18T18:52:58.546


reading instance and constructing model...
took 0.00356995 seconds

solving model...

finding initial iterate
initial iterate found
starting iteration

 iter        p_obj        d_obj   abs_gap   rel_gap     p_inf     d_inf       tau       kap        mu
    0  -1.3776e+01  -1.2593e+03  2.86e+02  2.08e+01  1.04e+00  2.53e+01  1.00e+00  1.00e+00  1.00e+00
    1  -1.3842e+01  -1.2546e+03  2.24e+02  1.62e+01  1.04e+00  2.52e+01  7.86e-01  9.96e-01  7.83e-01
    2  -1.3788e+01  -1.2481e+03  1.76e+02  1.27e+01  1.03e+00  2.51e+01  6.19e-01  9.91e-01  6.14e-01
    3  -1.3575e+01  -1.2390e+03  1.38e+02  1.01e+01  1.03e+00  2.49e+01  4.88e-01  9.85e-01  4.81e-01
    4  -1.3194e+01  -1.2265e+03  1.08e+02  8.17e+00  1.02e+00  2.47e+01  3.86e-01  9.75e-01  3.77e-01
    5  -1.2650e+01  -1.2090e+03  8.44e+01  6.67e+00  1.00e+00  2.44e+01  3.07e-01  9.62e-01  2.95e-01
    6  -1.1934e+01  -1.1839e+03  6.61e+01  5.54e+00  9.83e-01  2.39e+01  2.45e-01  9.43e-01  2.31e-01
    7  -1.1008e+01  -1.1463e+03  5.18e+01  4.71e+00  9.53e-01  2.31e+01  1.98e-01  9.14e-01  1.81e-01
    8  -1.0225e+01  -1.1093e+03  4.39e+01  4.30e+00  9.23e-01  2.24e+01  1.74e-01  8.85e-01  1.54e-01
    9  -9.2733e+00  -1.0587e+03  3.73e+01  4.02e+00  8.82e-01  2.14e+01  1.54e-01  8.46e-01  1.30e-01
   10  -8.1185e+00  -9.9043e+02  3.16e+01  3.90e+00  8.26e-01  2.01e+01  1.40e-01  7.92e-01  1.11e-01
   11  -7.2131e+00  -9.3303e+02  2.83e+01  3.92e+00  7.79e-01  1.89e+01  1.32e-01  7.46e-01  9.89e-02
   12  -6.2354e+00  -8.6863e+02  2.53e+01  4.05e+00  7.25e-01  1.76e+01  1.27e-01  6.96e-01  8.84e-02
   13  -5.2154e+00  -7.9963e+02  2.26e+01  4.33e+00  6.68e-01  1.62e+01  1.23e-01  6.41e-01  7.90e-02
   14  -3.7151e+00  -6.9630e+02  1.92e+01  5.16e+00  5.83e-01  1.42e+01  1.20e-01  5.59e-01  6.70e-02
   15  -2.2842e+00  -5.9690e+02  1.63e+01  7.12e+00  5.00e-01  1.22e+01  1.19e-01  4.80e-01  5.69e-02
   16  -9.7581e-01  -5.0611e+02  1.38e+01  1.41e+01  4.25e-01  1.03e+01  1.18e-01  4.08e-01  4.82e-02
   17   1.8641e-01  -4.2592e+02  1.17e+01       NaN  3.59e-01  8.71e+00  1.19e-01  3.44e-01  4.09e-02
   18   1.1973e+00  -3.5661e+02  9.93e+00       NaN  3.01e-01  7.31e+00  1.20e-01  2.89e-01  3.47e-02
   19   2.4301e+00  -2.7233e+02  7.78e+00       NaN  2.31e-01  5.62e+00  1.23e-01  2.22e-01  2.72e-02
   20   3.3719e+00  -2.0706e+02  6.10e+00       NaN  1.77e-01  4.30e+00  1.26e-01  1.70e-01  2.13e-02
   21   4.0609e+00  -1.5700e+02  4.78e+00       NaN  1.35e-01  3.29e+00  1.29e-01  1.30e-01  1.67e-02
   22   4.5342e+00  -1.1879e+02  3.74e+00       NaN  1.04e-01  2.52e+00  1.32e-01  9.94e-02  1.31e-02
   23   4.8245e+00  -8.9683e+01  2.93e+00       NaN  7.95e-02  1.93e+00  1.35e-01  7.62e-02  1.03e-02
   24   4.9589e+00  -6.7545e+01  2.30e+00       NaN  6.10e-02  1.48e+00  1.37e-01  5.84e-02  8.03e-03
   25   4.9602e+00  -5.0728e+01  1.80e+00       NaN  4.68e-02  1.14e+00  1.40e-01  4.49e-02  6.29e-03
   26   4.8493e+00  -3.7975e+01  1.41e+00       NaN  3.60e-02  8.74e-01  1.43e-01  3.45e-02  4.93e-03
   27   4.6484e+00  -2.8326e+01  1.10e+00       NaN  2.77e-02  6.73e-01  1.45e-01  2.66e-02  3.86e-03
   28   4.3831e+00  -2.1042e+01  8.66e-01       NaN  2.14e-02  5.19e-01  1.48e-01  2.05e-02  3.03e-03
   29   4.0805e+00  -1.5554e+01  6.78e-01       NaN  1.65e-02  4.01e-01  1.50e-01  1.58e-02  2.37e-03
   30   3.7662e+00  -1.1421e+01  5.31e-01       NaN  1.28e-02  3.10e-01  1.52e-01  1.22e-02  1.86e-03
   31   3.4604e+00  -8.3072e+00  4.16e-01       NaN  9.89e-03  2.40e-01  1.54e-01  9.48e-03  1.46e-03
   32   3.1763e+00  -5.9568e+00  3.26e-01       NaN  7.67e-03  1.86e-01  1.55e-01  7.35e-03  1.14e-03
   33   2.9209e+00  -4.1785e+00  2.55e-01       NaN  5.96e-03  1.45e-01  1.56e-01  5.72e-03  8.93e-04
   34   2.6968e+00  -2.8296e+00  2.00e-01       NaN  4.64e-03  1.13e-01  1.57e-01  4.45e-03  7.00e-04
   35   2.5042e+00  -1.8031e+00  1.57e-01       NaN  3.62e-03  8.79e-02  1.58e-01  3.47e-03  5.48e-04
   36   2.3414e+00  -1.0193e+00  1.23e-01       NaN  2.82e-03  6.86e-02  1.59e-01  2.70e-03  4.30e-04
   37   2.2064e+00  -4.1812e-01  9.62e-02       NaN  2.20e-03  5.36e-02  1.59e-01  2.11e-03  3.37e-04
   38   2.0966e+00   4.5433e-02  7.54e-02  1.66e+00  1.72e-03  4.19e-02  1.60e-01  1.65e-03  2.64e-04
   39   2.0091e+00   4.0493e-01  5.91e-02  1.46e-01  1.35e-03  3.27e-02  1.60e-01  1.29e-03  2.07e-04
   40   1.9403e+00   6.8522e-01  4.63e-02  6.75e-02  1.05e-03  2.56e-02  1.60e-01  1.01e-03  1.62e-04
   41   1.8870e+00   9.0465e-01  3.63e-02  4.01e-02  8.25e-04  2.00e-02  1.60e-01  7.90e-04  1.27e-04
   42   1.8460e+00   1.0769e+00  2.84e-02  2.64e-02  6.46e-04  1.57e-02  1.61e-01  6.19e-04  9.93e-05
   43   1.8145e+00   1.2123e+00  2.23e-02  1.84e-02  5.06e-04  1.23e-02  1.61e-01  4.84e-04  7.78e-05
   44   1.7802e+00   1.3645e+00  1.54e-02  1.13e-02  3.49e-04  8.48e-03  1.61e-01  3.34e-04  5.37e-05
   45   1.7573e+00   1.4702e+00  1.06e-02  7.22e-03  2.41e-04  5.86e-03  1.61e-01  2.31e-04  3.71e-05
   46   1.7419e+00   1.5437e+00  7.33e-03  4.75e-03  1.66e-04  4.04e-03  1.61e-01  1.59e-04  2.56e-05
   47   1.7272e+00   1.6166e+00  4.09e-03  2.53e-03  9.29e-05  2.26e-03  1.61e-01  8.89e-05  1.43e-05
   48   1.7192e+00   1.6575e+00  2.28e-03  1.38e-03  5.18e-05  1.26e-03  1.61e-01  4.96e-05  7.99e-06
   49   1.7129e+00   1.6902e+00  8.42e-04  4.98e-04  1.91e-05  4.64e-04  1.61e-01  1.83e-05  2.95e-06
   50   1.7107e+00   1.7023e+00  3.11e-04  1.83e-04  7.05e-06  1.71e-04  1.61e-01  6.75e-06  1.09e-06
   51   1.7095e+00   1.7086e+00  3.05e-05  1.79e-05  6.93e-07  1.68e-05  1.61e-01  6.63e-07  1.07e-07
   52   1.7093e+00   1.7093e+00  3.00e-06  1.76e-06  6.81e-08  1.65e-06  1.61e-01  6.52e-08  1.05e-08
   53   1.7093e+00   1.7093e+00  2.95e-07  1.73e-07  6.69e-09  1.63e-07  1.61e-01  6.41e-09  1.03e-09
   54   1.7093e+00   1.7093e+00  2.90e-08  1.70e-08  6.58e-10  1.60e-08  1.61e-01  6.30e-10  1.01e-10
optimal solution found; terminating

status is Optimal after 54 iterations and 0.163 seconds


Hypatia finished
took 0.203695376 seconds
memory allocation data:
Base.GC_Diff
  allocd: Int64 12101536
  malloc: Int64 282
  realloc: Int64 13
  poolalloc: Int64 289901
  bigalloc: Int64 80
  freecall: Int64 262
  total_time: Int64 8830193
  pause: Int64 1
  full_sweep: Int64 0

